HUN,8,6,300
5,25,2,23,0,25,4,27,1,21,3,28
2,29,4,28,3,22,0,24,5,26,1,30
0,27,4,26,5,24,3,30,1,28,2,26
2,30,4,24,5,29,1,27,0,21,3,28
0,25,4,21,5,29,1,27,3,24,2,30
2,27,4,23,1,21,0,24,5,27,3,21
3,25,5,30,0,21,2,28,4,29,1,24
2,30,0,30,5,30,1,28,4,29,3,22
